GLPSOL: GLPK LP/MIP Solver, v4.45
Parameter(s) specified in the command line:
 -m set_part.mod -d dat/sppnw36.dat -o sol/sppnw36.sol --tmlim 5400 --log
 log/sppnw36.log
Reading model section from set_part.mod...
18 lines were read
Reading data section from dat/sppnw36.dat...
dat/sppnw36.dat:1810: warning: final NL missing before end of file
1810 lines were read
Generating cost...
Generating Intersection...
Model has been successfully generated
GLPK Integer Optimizer, v4.45
21 rows, 1783 columns, 14943 non-zeros
1783 integer variables, all of which are binary
Preprocessing...
20 rows, 1783 columns, 13160 non-zeros
1783 integer variables, all of which are binary
Scaling...
 A: min|aij| =  1.000e+00  max|aij| =  1.000e+00  ratio =  1.000e+00
Problem data seem to be well scaled
Constructing initial basis...
Size of triangular part = 16
Solving LP relaxation...
GLPK Simplex Optimizer, v4.45
20 rows, 1783 columns, 13160 non-zeros
      0: obj =   8.622000000e+03  infeas =  3.000e+00 (4)
*     7: obj =   9.553444444e+03  infeas =  1.850e-17 (3)
*    52: obj =   7.260000000e+03  infeas =  3.116e-16 (3)
OPTIMAL SOLUTION FOUND
Integer optimization begins...
+    52: mip =     not found yet >=              -inf        (1; 0)
+    73: >>>>>   7.314000000e+03 >=   7.268000000e+03   0.6% (5; 0)
+   116: mip =   7.314000000e+03 >=     tree is empty   0.0% (0; 15)
INTEGER OPTIMAL SOLUTION FOUND
Time used:   0.1 secs
Memory used: 6.5 Mb (6787609 bytes)
Writing MIP solution to `sol/sppnw36.sol'...
